26
68
51
237
123
129
60
33
62
64
122
55
76
153
74
86
169
82
89
660
26
33
51
132
33
44
63
45
133
128
38
75
121
53
132
0
168
192
38
39
89
64
181
133
91
70
67
178
73
92
85
179
338
68
72
106
59
62
65
75
296
52
109
82
94
69
235
25
53
49
183
56
23
51
33
41
330
41
38
35
356
194
34
372
72
71
40
0
371
79
56
34
103
69
451
94
67
64
73
0
